0
7
1 2 
a
b
1a
# Complete task option with no options available
1
# 
2
This string is not valid Scheduled:
        - Finish assignment 1
invalid date
99/99/99
31/13/99
3/1/99
123456:123456
12pm
12:03pm
11:61
25:61
-1:12
24:00
23:59
n
6
